
Gurobi 7.5.2 (linux64, Python) logging started Wed Aug 21 12:47:15 2019

Academic license - for non-commercial use only

Gurobi 7.5.2 (linux64, Python) logging started Wed Aug 21 12:57:28 2019

Academic license - for non-commercial use only

Gurobi 7.5.2 (linux64, Python) logging started Thu Aug 22 13:28:43 2019

Academic license - for non-commercial use only

Gurobi 7.5.2 (linux64, Python) logging started Tue Aug 27 16:56:02 2019

Academic license - for non-commercial use only

Gurobi 7.5.2 (linux64, Python) logging started Tue Aug 27 18:10:27 2019

Academic license - for non-commercial use only

Gurobi 7.5.2 (linux64, Python) logging started Sun Sep  1 09:55:03 2019

Academic license - for non-commercial use only

Gurobi 7.5.2 (linux64, Python) logging started Sun Sep  1 10:07:50 2019

Academic license - for non-commercial use only

Gurobi 7.5.2 (linux64, Python) logging started Sun Sep  1 10:11:15 2019

Academic license - for non-commercial use only

Gurobi 7.5.2 (linux64, Python) logging started Thu Sep  5 08:38:56 2019

Academic license - for non-commercial use only

Gurobi 7.5.2 (linux64, Python) logging started Thu Sep  5 08:46:21 2019

Academic license - for non-commercial use only

Gurobi 7.5.2 (linux64, Python) logging started Thu Sep  5 08:49:46 2019

Academic license - for non-commercial use only

Gurobi 7.5.2 (linux64, Python) logging started Thu Sep  5 08:52:39 2019

Academic license - for non-commercial use only

Gurobi 7.5.2 (linux64, Python) logging started Thu Sep  5 10:15:08 2019

Academic license - for non-commercial use only

Gurobi 7.5.2 (linux64, Python) logging started Thu Sep  5 10:40:53 2019

Academic license - for non-commercial use only

Gurobi 7.5.2 (linux64, Python) logging started Thu Sep  5 10:46:19 2019

Academic license - for non-commercial use only

Gurobi 7.5.2 (linux64, Python) logging started Thu Sep  5 11:09:29 2019

Academic license - for non-commercial use only

Gurobi 7.5.2 (linux64, Python) logging started Thu Sep  5 11:14:56 2019

Academic license - for non-commercial use only

Gurobi 7.5.2 (linux64, Python) logging started Thu Sep  5 11:18:58 2019

Academic license - for non-commercial use only

Gurobi 7.5.2 (linux64, Python) logging started Thu Sep  5 11:22:59 2019

Academic license - for non-commercial use only

Gurobi 7.5.2 (linux64, Python) logging started Mon Sep  9 08:10:31 2019

Academic license - for non-commercial use only

Gurobi 7.5.2 (linux64, Python) logging started Mon Sep  9 08:12:14 2019

Academic license - for non-commercial use only

Gurobi 7.5.2 (linux64, Python) logging started Mon Sep  9 14:52:43 2019

Academic license - for non-commercial use only

Gurobi 7.5.2 (linux64, Python) logging started Mon Sep  9 14:56:48 2019

Academic license - for non-commercial use only

Gurobi 7.5.2 (linux64, Python) logging started Mon Sep  9 14:57:48 2019

Academic license - for non-commercial use only

Gurobi 7.5.2 (linux64, Python) logging started Mon Sep  9 16:01:33 2019

Academic license - for non-commercial use only

Gurobi 7.5.2 (linux64, Python) logging started Mon Sep  9 16:05:22 2019

Academic license - for non-commercial use only
